datasets/5l5i.nl
g3 3 1 0	# problem 5l5i
 30 25 1 0 25	# vars, constraints, objectives, ranges, eqns
 0 1	# nonlinear constraints, objectives
 0 0	# network constraints: nonlinear, linear
 0 15 0	# nonlinear vars in constraints, objectives, both
 0 0 0 1	# linear network variables; functions; arith, flags
 0 15 0 0 15	# discrete variables: binary, integer, nonlinear (b,c,o)
 60 15	# nonzeros in Jacobian, gradients
 0 0	# max name lengths: constraints, variables
 0 0 0 0 0	# common exprs: b,c,o,c1,o1
b
2 0
2 0
2 0
2 0
2 0
2 0
2 0
2 0
2 0
2 0
2 0
2 0
2 0
2 0
2 0
0 0 100
0 0 100
0 0 100
0 0 100
0 0 100
0 0 100
0 0 100
0 0 100
0 0 100
0 0 100
0 0 100
0 0 100
0 0 100
0 0 100
0 0 100
r
4 400
4 400
4 400
4 400
4 400
4 -120
4 -170
4 -120
4 -130
4 -130
4 -130
4 -130
4 -170
4 -180
4 -140
4 -250
4 -200
4 -210
4 -190
4 -230
4 100
4 100
4 100
4 100
4 100
C0
n0
C1
n0
C2
n0
C3
n0
C4
n0
C5
n0
C6
n0
C7
n0
C8
n0
C9
n0
C10
n0
C11
n0
C12
n0
C13
n0
C14
n0
C15
n0
C16
n0
C17
n0
C18
n0
C19
n0
C20
n0
C21
n0
C22
n0
C23
n0
C24
n0
O0 0
o54
16
o2
n10000
o5
o16
o3
v0
n-120
n2
o2
n10000
o5
o16
o3
v1
n-170
n2
o2
n10000
o5
o16
o3
v2
n-120
n2
o2
n10000
o5
o16
o3
v3
n-130
n2
o2
n10000
o5
o16
o3
v4
n-130
n2
o2
n10000
o5
o16
o3
v5
n-130
n2
o2
n10000
o5
o16
o3
v6
n-130
n2
o2
n10000
o5
o16
o3
v7
n-170
n2
o2
n10000
o5
o16
o3
v8
n-180
n2
o2
n10000
o5
o16
o3
v9
n-140
n2
o2
n10000
o5
o16
o3
v10
n-250
n2
o2
n10000
o5
o16
o3
v11
n-200
n2
o2
n10000
o5
o16
o3
v12
n-210
n2
o2
n10000
o5
o16
o3
v13
n-190
n2
o2
n10000
o5
o16
o3
v14
n-230
n2
n1604000
k29
2
4
6
8
10
12
14
16
18
20
22
24
26
28
30
32
34
36
38
40
42
44
46
48
50
52
54
56
58
J0 3
0 1
5 1
10 1
J1 3
1 1
6 1
11 1
J2 3
2 1
7 1
12 1
J3 3
3 1
8 1
13 1
J4 3
4 1
9 1
14 1
J5 2
0 -1
15 -1
J6 2
1 -1
16 -1
J7 2
2 -1
17 -1
J8 2
3 -1
18 -1
J9 2
4 -1
19 -1
J10 2
5 -1
20 -1
J11 2
6 -1
21 -1
J12 2
7 -1
22 -1
J13 2
8 -1
23 -1
J14 2
9 -1
24 -1
J15 2
10 -1
25 -1
J16 2
11 -1
26 -1
J17 2
12 -1
27 -1
J18 2
13 -1
28 -1
J19 2
14 -1
29 -1
J20 3
15 1
20 1
25 1
J21 3
16 1
21 1
26 1
J22 3
17 1
22 1
27 1
J23 3
18 1
23 1
28 1
J24 3
19 1
24 1
29 1
G0 15
0 501
1 501
2 501
3 501
4 501
5 829
6 829
7 829
8 829
9 829
10 655
11 655
12 655
13 655
14 655
