datasets/5l5i.sol
 
couenne: Optimal

Options
3
3
1
0
25
0
30
30
120
170
120
130
130
30
30
70
80
40
250
200
210
190
230
0
0
0
0
0
100
100
100
100
100
0
0
0
0
0
objno 0 3
